c Output_time 26.03.2020 18:13:09_+0100 1585242789161988650
c ** Program information **
c program_name                          "QBRG_debug"
c version                               "0.3.20"
c date                                  "25.3.2020"
c gid_id                                "673970833836058123f633335630c185360d632e"
c author                                "Oliver Kullmann"
c url                                   "https://github.com/OKullmann/oklibrary/blob/master/Satisfiability/Transformers/Generators/Random/QBRG.cpp"
c ** Machine information **
c machine_name                          "chyna-Lenovo-G50-70"
c bogomips                              3791.08
c ** Compilation information **
c compiler_version                      "g++ 7.5.0"
c compilation_date                      "Mar_26_2020 11:16:30"
c compilation_options                   "--std=c++17 -pedantic -fmax-errors=5 -Wall -Wextra -g -D_GLIBCXX_DEBUG"
c NDEBUG                                0
c OPTIMIZE                              0
c ** Parameters **
c command-line                          "./QBRG_debug" "e40 a40 40" "104*1,1|2-2,1|3-3,1" "" "1,t" ""
c output                                "QuBlRaGe_120_104_1585242789161240480.qdimacs"
c options                               "filtered,renamed"
c num_quantifier_blocks                 3
c  quantifier_blocks                    1:e1-40 2:a41-80 3:e81-120
c num_clause-blocks                     1
c  clause-blocks                        104 * {1-40,1,1/2} | {41-80,1,1/2} | {81-120,1,1/2}
c num_e-seeds                           30+2=32
c  e-seeds                              1 0 1 0 4 120 2 40 1 40 0 40 1 104 3 1 1 1 1 2 2 2 1 1 2 3 3 1 1 2 1 1585242789161240098
p cnf 111 104
e 1 2 3 4 5 6 7 8 9 10 11 12 13 14 15 16 17 18 19 20 21 22 23 24 25 26 27 28 29 30 31 32 33 34 35 36 37 38 0
a 39 40 41 42 43 44 45 46 47 48 49 50 51 52 53 54 55 56 57 58 59 60 61 62 63 64 65 66 67 68 69 70 71 72 73 74 0
e 75 76 77 78 79 80 81 82 83 84 85 86 87 88 89 90 91 92 93 94 95 96 97 98 99 100 101 102 103 104 105 106 107 108 109 110 111 0
-24 47 75 0
37 -42 76 0
17 -50 76 0
13 -73 76 0
-4 -50 -77 0
28 42 -78 0
-22 -49 -78 0
6 54 -78 0
-19 -63 -78 0
-34 74 -78 0
34 -68 78 0
38 51 -79 0
8 -41 79 0
4 -45 79 0
-21 45 -80 0
-34 -67 80 0
31 -65 -81 0
-9 61 81 0
19 49 -82 0
-1 57 -82 0
-21 68 82 0
-32 -71 82 0
36 58 83 0
24 73 83 0
20 -49 -84 0
-11 74 84 0
-17 57 85 0
8 42 -86 0
31 55 -86 0
-9 70 -86 0
-3 -46 -87 0
8 -49 -87 0
5 61 -87 0
-33 45 87 0
27 -67 87 0
27 -56 -88 0
-10 -47 88 0
15 55 88 0
2 -74 88 0
6 -50 89 0
-26 62 89 0
27 -48 -90 0
23 43 90 0
29 -63 90 0
-11 50 -91 0
4 -66 91 0
21 -63 -92 0
34 39 92 0
19 57 92 0
-18 67 92 0
-21 -50 -93 0
14 -72 -93 0
-6 -54 -94 0
-28 -53 94 0
-28 -69 94 0
-3 -54 -95 0
-36 -63 -95 0
-17 52 -96 0
21 -66 -96 0
10 73 -96 0
30 -56 96 0
11 -67 96 0
6 -41 -97 0
-1 72 -97 0
8 -50 97 0
-33 -61 97 0
-16 -52 -98 0
-2 64 -98 0
-26 68 98 0
22 -42 -99 0
19 57 -99 0
-35 -61 -99 0
-5 -64 -99 0
-19 -73 -99 0
-25 -57 99 0
-26 47 100 0
31 -60 -101 0
8 71 -101 0
-32 50 101 0
7 66 102 0
-3 -70 -103 0
-35 56 103 0
14 -39 -104 0
-6 40 -104 0
-26 68 104 0
29 44 105 0
2 -43 -106 0
29 61 -106 0
3 -66 -106 0
-17 58 106 0
-15 67 106 0
-9 60 -107 0
-5 45 107 0
-32 -48 107 0
-34 51 107 0
-34 61 107 0
20 -55 -108 0
-27 59 -108 0
9 65 -108 0
38 -56 108 0
12 -41 -109 0
-30 67 -110 0
-27 43 -111 0
-12 58 111 0
